# Objective value = 8.8701499999999978e+03
I_0_0 1428
I_0_1 2009
I_0_2 1834
I_0_3 1623
I_0_4 1814
I_0_5 1546
I_0_6 2017
I_1_0 158
I_1_1 79
I_1_2 0
I_1_3 158
I_1_4 79
I_1_5 158
I_1_6 7.8999999999999929e+01
I_2_0 142
I_2_1 71
I_2_2 0
I_2_3 142
I_2_4 71
I_2_5 142
I_2_6 71
I_3_0 27
I_3_1 0
I_3_2 27
I_3_3 27
I_3_4 0
I_3_5 27
I_3_6 0
I_4_0 86
I_4_1 43
I_4_2 0
I_4_3 86
I_4_4 43
I_4_5 86
I_4_6 4.2999999999999964e+01
I_5_0 126
I_5_1 63
I_5_2 126
I_5_3 63
I_5_4 126
I_5_5 63
I_5_6 0
I_6_0 20
I_6_1 10
I_6_2 3.5527136788005009e-15
I_6_3 1.9999999999999996e+01
I_6_4 9.9999999999999662e+00
I_6_5 20
I_6_6 9.9999999999999911e+00
I_7_0 69
I_7_1 0
I_7_2 69
I_7_3 69
I_7_4 0
I_7_5 69
I_7_6 0
I_8_0 77
I_8_1 0
I_8_2 77
I_8_3 0
I_8_4 77
I_8_5 7.6999999999999986e+01
I_8_6 0
I_9_0 55
I_9_1 0
I_9_2 55
I_9_3 0
I_9_4 55
I_9_5 0
I_9_6 55
I_10_0 87
I_10_1 0
I_10_2 87
I_10_3 87
I_10_4 0
I_10_5 87
I_10_6 0
q_1_0 0
q_1_1 0
q_1_2 237
q_1_3 0
q_1_4 158
q_1_5 0
q_2_0 0
q_2_1 0
q_2_2 213
q_2_3 0
q_2_4 142
q_2_5 0
q_3_0 0
q_3_1 54
q_3_2 27
q_3_3 0
q_3_4 54
q_3_5 0
q_4_0 0
q_4_1 0
q_4_2 129
q_4_3 0
q_4_4 86
q_4_5 0
q_5_0 0
q_5_1 126
q_5_2 0
q_5_3 126
q_5_4 0
q_5_5 0
q_6_0 0
q_6_1 0
q_6_2 2.9999999999999993e+01
q_6_3 0
q_6_4 2.0000000000000036e+01
q_6_5 0
q_7_0 0
q_7_1 138
q_7_2 69
q_7_3 0
q_7_4 138
q_7_5 0
q_8_0 0
q_8_1 154
q_8_2 0
q_8_3 154
q_8_4 7.6999999999999986e+01
q_8_5 1.4210854715202004e-14
q_9_0 0
q_9_1 110
q_9_2 0
q_9_3 110
q_9_4 0
q_9_5 110
q_10_0 0
q_10_1 174
q_10_2 87
q_10_3 0
q_10_4 174
q_10_5 0
y_0_0 0
y_0_1 1
y_0_2 1
y_0_3 1
y_0_4 1
y_0_5 1
y_1_0 0
y_1_1 0
y_1_2 1
y_1_3 0
y_1_4 1
y_1_5 0
y_2_0 0
y_2_1 0
y_2_2 1
y_2_3 0
y_2_4 1
y_2_5 0
y_3_0 0
y_3_1 1
y_3_2 1
y_3_3 0
y_3_4 1
y_3_5 0
y_4_0 0
y_4_1 0
y_4_2 1
y_4_3 0
y_4_4 1
y_4_5 0
y_5_0 0
y_5_1 1
y_5_2 0
y_5_3 1
y_5_4 0
y_5_5 0
y_6_0 0
y_6_1 0
y_6_2 1
y_6_3 0
y_6_4 1
y_6_5 0
y_7_0 0
y_7_1 1
y_7_2 1
y_7_3 0
y_7_4 1
y_7_5 0
y_8_0 0
y_8_1 1
y_8_2 0
y_8_3 1
y_8_4 9.9999999999999989e-01
y_8_5 0
y_9_0 0
y_9_1 1
y_9_2 0
y_9_3 1
y_9_4 0
y_9_5 1
y_10_0 0
y_10_1 1
y_10_2 1
y_10_3 0
y_10_4 1
y_10_5 0
x_0_1_0 0
x_0_1_1 0
x_0_1_2 0
x_0_1_3 0
x_0_1_4 0
x_0_1_5 0
x_0_2_0 0
x_0_2_1 0
x_0_2_2 1
x_0_2_3 0
x_0_2_4 1
x_0_2_5 0
x_0_3_0 0
x_0_3_1 0
x_0_3_2 1
x_0_3_3 0
x_0_3_4 0
x_0_3_5 0
x_0_4_0 0
x_0_4_1 0
x_0_4_2 0
x_0_4_3 0
x_0_4_4 0
x_0_4_5 0
x_0_5_0 0
x_0_5_1 0
x_0_5_2 0
x_0_5_3 0
x_0_5_4 0
x_0_5_5 0
x_0_6_0 0
x_0_6_1 0
x_0_6_2 0
x_0_6_3 0
x_0_6_4 0
x_0_6_5 0
x_0_7_0 0
x_0_7_1 0
x_0_7_2 0
x_0_7_3 0
x_0_7_4 0
x_0_7_5 0
x_0_8_0 0
x_0_8_1 1.0000000000000002e+00
x_0_8_2 0
x_0_8_3 1
x_0_8_4 1
x_0_8_5 0
x_0_9_0 0
x_0_9_1 9.9999999999999978e-01
x_0_9_2 0
x_0_9_3 1
x_0_9_4 0
x_0_9_5 2
x_0_10_0 0
x_0_10_1 0
x_0_10_2 0
x_0_10_3 0
x_0_10_4 0
x_0_10_5 0
x_1_2_0 0
x_1_2_1 0
x_1_2_2 0
x_1_2_3 0
x_1_2_4 0
x_1_2_5 0
x_1_3_0 0
x_1_3_1 0
x_1_3_2 0
x_1_3_3 0
x_1_3_4 0
x_1_3_5 0
x_1_4_0 0
x_1_4_1 0
x_1_4_2 0
x_1_4_3 0
x_1_4_4 0
x_1_4_5 0
x_1_5_0 0
x_1_5_1 0
x_1_5_2 0
x_1_5_3 0
x_1_5_4 0
x_1_5_5 0
x_1_6_0 0
x_1_6_1 0
x_1_6_2 1
x_1_6_3 0
x_1_6_4 1
x_1_6_5 0
x_1_7_0 0
x_1_7_1 0
x_1_7_2 1
x_1_7_3 0
x_1_7_4 1
x_1_7_5 0
x_1_8_0 0
x_1_8_1 0
x_1_8_2 0
x_1_8_3 0
x_1_8_4 0
x_1_8_5 0
x_1_9_0 0
x_1_9_1 0
x_1_9_2 0
x_1_9_3 0
x_1_9_4 0
x_1_9_5 0
x_1_10_0 0
x_1_10_1 0
x_1_10_2 0
x_1_10_3 0
x_1_10_4 0
x_1_10_5 0
x_2_3_0 0
x_2_3_1 0
x_2_3_2 0
x_2_3_3 0
x_2_3_4 0
x_2_3_5 0
x_2_4_0 0
x_2_4_1 0
x_2_4_2 1
x_2_4_3 0
x_2_4_4 1
x_2_4_5 0
x_2_5_0 0
x_2_5_1 0
x_2_5_2 0
x_2_5_3 0
x_2_5_4 0
x_2_5_5 0
x_2_6_0 0
x_2_6_1 0
x_2_6_2 0
x_2_6_3 0
x_2_6_4 0
x_2_6_5 0
x_2_7_0 0
x_2_7_1 0
x_2_7_2 0
x_2_7_3 0
x_2_7_4 0
x_2_7_5 0
x_2_8_0 0
x_2_8_1 0
x_2_8_2 0
x_2_8_3 0
x_2_8_4 0
x_2_8_5 0
x_2_9_0 0
x_2_9_1 0
x_2_9_2 0
x_2_9_3 0
x_2_9_4 0
x_2_9_5 0
x_2_10_0 0
x_2_10_1 0
x_2_10_2 0
x_2_10_3 0
x_2_10_4 0
x_2_10_5 0
x_3_4_0 0
x_3_4_1 0
x_3_4_2 0
x_3_4_3 0
x_3_4_4 0
x_3_4_5 0
x_3_5_0 0
x_3_5_1 0
x_3_5_2 0
x_3_5_3 0
x_3_5_4 0
x_3_5_5 0
x_3_6_0 0
x_3_6_1 0
x_3_6_2 0
x_3_6_3 0
x_3_6_4 0
x_3_6_5 0
x_3_7_0 0
x_3_7_1 0
x_3_7_2 0
x_3_7_3 0
x_3_7_4 0
x_3_7_5 0
x_3_8_0 0
x_3_8_1 1
x_3_8_2 0
x_3_8_3 0
x_3_8_4 1
x_3_8_5 0
x_3_9_0 0
x_3_9_1 0
x_3_9_2 0
x_3_9_3 0
x_3_9_4 0
x_3_9_5 0
x_3_10_0 0
x_3_10_1 1
x_3_10_2 1
x_3_10_3 0
x_3_10_4 1.0000000000000002e+00
x_3_10_5 0
x_4_5_0 0
x_4_5_1 0
x_4_5_2 0
x_4_5_3 0
x_4_5_4 0
x_4_5_5 0
x_4_6_0 0
x_4_6_1 0
x_4_6_2 0
x_4_6_3 0
x_4_6_4 0
x_4_6_5 0
x_4_7_0 0
x_4_7_1 0
x_4_7_2 1
x_4_7_3 0
x_4_7_4 1
x_4_7_5 0
x_4_8_0 0
x_4_8_1 0
x_4_8_2 0
x_4_8_3 0
x_4_8_4 0
x_4_8_5 0
x_4_9_0 0
x_4_9_1 0
x_4_9_2 0
x_4_9_3 0
x_4_9_4 0
x_4_9_5 0
x_4_10_0 0
x_4_10_1 0
x_4_10_2 0
x_4_10_3 0
x_4_10_4 0
x_4_10_5 0
x_5_6_0 0
x_5_6_1 0
x_5_6_2 0
x_5_6_3 0
x_5_6_4 0
x_5_6_5 0
x_5_7_0 0
x_5_7_1 9.9999999999999967e-01
x_5_7_2 0
x_5_7_3 0
x_5_7_4 0
x_5_7_5 0
x_5_8_0 0
x_5_8_1 0
x_5_8_2 0
x_5_8_3 1
x_5_8_4 0
x_5_8_5 0
x_5_9_0 0
x_5_9_1 1.0000000000000004e+00
x_5_9_2 0
x_5_9_3 1
x_5_9_4 0
x_5_9_5 0
x_5_10_0 0
x_5_10_1 0
x_5_10_2 0
x_5_10_3 0
x_5_10_4 0
x_5_10_5 0
x_6_7_0 0
x_6_7_1 0
x_6_7_2 0
x_6_7_3 0
x_6_7_4 0
x_6_7_5 0
x_6_8_0 0
x_6_8_1 0
x_6_8_2 0
x_6_8_3 0
x_6_8_4 0
x_6_8_5 0
x_6_9_0 0
x_6_9_1 0
x_6_9_2 0
x_6_9_3 0
x_6_9_4 0
x_6_9_5 0
x_6_10_0 0
x_6_10_1 0
x_6_10_2 1
x_6_10_3 0
x_6_10_4 1
x_6_10_5 0
x_7_8_0 0
x_7_8_1 0
x_7_8_2 0
x_7_8_3 0
x_7_8_4 0
x_7_8_5 0
x_7_9_0 0
x_7_9_1 0
x_7_9_2 0
x_7_9_3 0
x_7_9_4 0
x_7_9_5 0
x_7_10_0 0
x_7_10_1 1
x_7_10_2 0
x_7_10_3 0
x_7_10_4 0
x_7_10_5 0
x_8_9_0 0
x_8_9_1 0
x_8_9_2 0
x_8_9_3 0
x_8_9_4 0
x_8_9_5 0
x_8_10_0 0
x_8_10_1 0
x_8_10_2 0
x_8_10_3 0
x_8_10_4 0
x_8_10_5 0
x_9_10_0 0
x_9_10_1 0
x_9_10_2 0
x_9_10_3 0
x_9_10_4 0
x_9_10_5 0
